c Reduced graph for GEOM80b_1 generated by Cyril Grelier
p edge 74 635
v 1 3
v 2 3
v 3 3
v 4 3
v 5 3
v 6 3
v 7 3
v 8 3
v 9 3
v 10 3
v 11 3
v 12 3
v 13 3
v 14 3
v 15 3
v 16 3
v 17 3
v 18 3
v 19 3
v 20 3
v 21 3
v 22 3
v 23 3
v 24 3
v 25 3
v 26 3
v 27 3
v 28 3
v 29 3
v 30 2
v 31 2
v 32 2
v 33 2
v 34 2
v 35 2
v 36 2
v 37 2
v 38 2
v 39 2
v 40 2
v 41 2
v 42 2
v 43 2
v 44 2
v 45 2
v 46 2
v 47 2
v 48 2
v 49 2
v 50 2
v 51 2
v 52 2
v 53 2
v 54 2
v 55 2
v 56 2
v 57 1
v 58 1
v 59 1
v 60 1
v 61 1
v 62 1
v 63 1
v 64 1
v 65 1
v 66 1
v 67 1
v 68 1
v 69 1
v 70 1
v 71 1
v 72 1
v 73 1
v 74 1
e 1 2
e 1 3
e 1 4
e 1 5
e 1 6
e 1 7
e 1 8
e 1 9
e 1 10
e 1 14
e 1 17
e 1 30
e 1 31
e 1 32
e 1 33
e 1 34
e 1 36
e 1 37
e 1 38
e 1 42
e 1 57
e 1 58
e 1 59
e 1 60
e 1 61
e 1 64
e 1 65
e 1 66
e 1 72
e 2 3
e 2 7
e 2 8
e 2 12
e 2 15
e 2 16
e 2 24
e 2 25
e 2 30
e 2 31
e 2 32
e 2 33
e 2 34
e 2 41
e 2 49
e 2 58
e 2 60
e 2 63
e 2 64
e 2 65
e 2 66
e 2 68
e 2 70
e 2 71
e 3 4
e 3 6
e 3 7
e 3 8
e 3 10
e 3 14
e 3 30
e 3 31
e 3 32
e 3 33
e 3 34
e 3 36
e 3 57
e 3 58
e 3 60
e 3 61
e 3 63
e 3 64
e 3 65
e 3 66
e 3 68
e 3 70
e 3 71
e 4 6
e 4 9
e 4 10
e 4 14
e 4 17
e 4 19
e 4 23
e 4 30
e 4 36
e 4 37
e 4 38
e 4 39
e 4 42
e 4 44
e 4 47
e 4 53
e 4 59
e 4 61
e 4 72
e 4 73
e 4 74
e 5 9
e 5 13
e 5 17
e 5 27
e 5 30
e 5 31
e 5 32
e 5 33
e 5 35
e 5 37
e 5 38
e 5 40
e 5 46
e 5 48
e 5 52
e 5 57
e 5 58
e 5 59
e 5 62
e 5 67
e 5 69
e 5 73
e 6 8
e 6 9
e 6 10
e 6 14
e 6 19
e 6 23
e 6 30
e 6 31
e 6 32
e 6 36
e 6 37
e 6 38
e 6 39
e 6 42
e 6 44
e 6 47
e 6 59
e 6 61
e 6 72
e 7 8
e 7 12
e 7 14
e 7 15
e 7 16
e 7 25
e 7 26
e 7 31
e 7 32
e 7 34
e 7 49
e 7 60
e 7 63
e 7 64
e 7 65
e 7 66
e 7 68
e 7 70
e 7 71
e 8 30
e 8 31
e 8 32
e 8 33
e 8 34
e 8 41
e 8 57
e 8 58
e 8 60
e 8 61
e 8 62
e 8 63
e 8 64
e 8 65
e 8 66
e 8 67
e 8 68
e 9 13
e 9 17
e 9 27
e 9 30
e 9 31
e 9 32
e 9 37
e 9 38
e 9 39
e 9 40
e 9 57
e 9 59
e 9 61
e 9 67
e 9 73
e 10 14
e 10 19
e 10 23
e 10 30
e 10 36
e 10 39
e 10 42
e 10 44
e 10 47
e 10 53
e 10 59
e 10 61
e 10 70
e 10 72
e 11 18
e 11 20
e 11 21
e 11 22
e 11 28
e 11 29
e 11 33
e 11 35
e 11 41
e 11 43
e 11 50
e 11 56
e 11 58
e 11 62
e 11 64
e 11 66
e 11 69
e 12 15
e 12 16
e 12 24
e 12 25
e 12 26
e 12 49
e 12 54
e 12 55
e 12 60
e 12 63
e 12 65
e 12 68
e 12 70
e 12 71
e 13 17
e 13 27
e 13 35
e 13 37
e 13 40
e 13 45
e 13 46
e 13 48
e 13 52
e 13 57
e 13 62
e 13 67
e 13 69
e 13 73
e 14 16
e 14 19
e 14 23
e 14 36
e 14 42
e 14 61
e 14 65
e 14 70
e 14 71
e 14 72
e 15 16
e 15 25
e 15 26
e 15 49
e 15 54
e 15 55
e 15 60
e 15 63
e 15 65
e 15 68
e 15 70
e 15 71
e 16 26
e 16 42
e 16 54
e 16 55
e 16 60
e 16 63
e 16 65
e 16 68
e 16 70
e 16 71
e 17 27
e 17 30
e 17 37
e 17 38
e 17 39
e 17 57
e 17 59
e 17 61
e 17 67
e 17 73
e 18 20
e 18 21
e 18 22
e 18 28
e 18 29
e 18 35
e 18 41
e 18 43
e 18 45
e 18 50
e 18 51
e 18 56
e 18 62
e 18 69
e 19 23
e 19 36
e 19 39
e 19 42
e 19 44
e 19 47
e 19 53
e 19 59
e 19 61
e 19 72
e 19 74
e 20 21
e 20 22
e 20 28
e 20 35
e 20 40
e 20 43
e 20 45
e 20 46
e 20 48
e 20 51
e 20 56
e 20 62
e 20 69
e 21 22
e 21 28
e 21 29
e 21 35
e 21 41
e 21 43
e 21 50
e 21 56
e 21 58
e 21 62
e 21 64
e 22 28
e 22 35
e 22 43
e 22 45
e 22 46
e 22 48
e 22 51
e 22 56
e 22 62
e 22 69
e 23 36
e 23 39
e 23 42
e 23 44
e 23 47
e 23 53
e 23 59
e 23 72
e 23 74
e 24 25
e 24 29
e 24 34
e 24 41
e 24 49
e 24 50
e 24 60
e 24 63
e 24 64
e 24 66
e 24 68
e 25 26
e 25 49
e 25 54
e 25 55
e 25 60
e 25 63
e 25 65
e 25 68
e 26 49
e 26 54
e 26 55
e 26 63
e 26 65
e 26 68
e 26 70
e 26 71
e 27 37
e 27 38
e 27 40
e 27 52
e 27 67
e 27 69
e 27 73
e 28 29
e 28 43
e 28 50
e 28 51
e 28 56
e 29 41
e 29 50
e 30 31
e 30 32
e 30 33
e 30 34
e 30 36
e 30 37
e 30 38
e 30 57
e 30 58
e 30 59
e 30 61
e 30 64
e 30 66
e 30 67
e 31 32
e 31 33
e 31 34
e 31 37
e 31 57
e 31 58
e 31 59
e 31 60
e 31 61
e 31 62
e 31 63
e 31 64
e 31 65
e 31 66
e 31 67
e 32 33
e 32 34
e 32 37
e 32 57
e 32 58
e 32 59
e 32 60
e 32 61
e 32 62
e 32 63
e 32 64
e 32 65
e 32 66
e 32 67
e 33 34
e 33 35
e 33 40
e 33 41
e 33 57
e 33 58
e 33 60
e 33 61
e 33 62
e 33 64
e 33 66
e 33 67
e 33 69
e 34 41
e 34 49
e 34 50
e 34 57
e 34 58
e 34 60
e 34 63
e 34 64
e 34 65
e 34 66
e 34 68
e 35 40
e 35 43
e 35 45
e 35 46
e 35 48
e 35 51
e 35 52
e 35 57
e 35 58
e 35 62
e 35 67
e 35 69
e 36 42
e 36 44
e 36 47
e 36 53
e 36 59
e 36 61
e 36 70
e 36 71
e 36 72
e 37 38
e 37 39
e 37 57
e 37 59
e 37 61
e 37 67
e 37 73
e 38 39
e 38 44
e 38 47
e 38 53
e 38 59
e 38 61
e 38 73
e 38 74
e 39 44
e 39 47
e 39 53
e 39 59
e 39 61
e 39 73
e 39 74
e 40 45
e 40 46
e 40 48
e 40 52
e 40 57
e 40 58
e 40 62
e 40 67
e 40 69
e 41 43
e 41 50
e 41 58
e 41 60
e 41 64
e 41 66
e 42 44
e 42 47
e 42 61
e 42 70
e 42 71
e 42 72
e 43 45
e 43 46
e 43 50
e 43 51
e 43 56
e 43 62
e 43 69
e 44 47
e 44 53
e 44 59
e 44 61
e 44 72
e 44 74
e 45 46
e 45 48
e 45 51
e 45 52
e 45 62
e 45 67
e 45 69
e 46 48
e 46 51
e 46 52
e 46 62
e 46 67
e 46 69
e 47 53
e 47 59
e 47 72
e 47 74
e 48 51
e 48 52
e 48 62
e 48 67
e 48 69
e 49 55
e 49 60
e 49 63
e 49 65
e 49 68
e 50 58
e 50 64
e 50 66
e 51 56
e 51 62
e 51 69
e 52 62
e 52 67
e 52 69
e 53 59
e 53 74
e 54 55
e 54 68
e 54 70
e 54 71
e 55 63
e 55 68
e 57 58
e 57 59
e 57 61
e 57 62
e 57 64
e 57 66
e 57 67
e 57 69
e 57 73
e 58 60
e 58 62
e 58 63
e 58 64
e 58 66
e 58 67
e 58 69
e 59 61
e 59 73
e 59 74
e 60 63
e 60 64
e 60 65
e 60 66
e 60 68
e 60 70
e 61 72
e 62 67
e 62 69
e 63 64
e 63 65
e 63 66
e 63 68
e 63 70
e 63 71
e 64 65
e 64 66
e 64 68
e 65 66
e 65 68
e 65 70
e 65 71
e 66 68
e 67 69
e 68 70
e 68 71
e 70 71
e 70 72
e 71 72
